g3 3 1 0	# problem prodpl1
 60 29 1 0 20	# vars, constraints, objectives, ranges, eqns
 4 0	# nonlinear constraints, objectives
 0 0	# network constraints: nonlinear, linear
 10 0 0	# nonlinear vars in constraints, objectives, both
 0 0 0 1	# linear network variables; functions; arith, flags
 0 0 0 0 0	# discrete variables: binary, integer, nonlinear (b,c,o)
 112 40	# nonzeros in Jacobian, gradients
 0 0	# max name lengths: constraints, variables
 0 0 0 0 0	# common exprs: b,c,o,c1,o1
b
2 0
2 0
2 0
2 0
2 0
2 0
2 0
2 0
2 0
2 0
2 0
2 0
2 0
2 0
2 0
2 0
2 0
2 0
2 0
2 0
2 0
2 0
2 0
2 0
2 0
2 0
2 0
2 0
2 0
2 0
2 0
2 0
2 0
2 0
2 0
2 0
2 0
2 0
2 0
2 0
2 0
2 0
2 0
2 0
2 0
2 0
2 0
2 0
2 0
2 0
2 0
2 0
2 0
2 0
2 0
2 0
2 0
2 0
2 0
2 0
r
2 0
2 0
2 0
2 0
2 -3
2 -6
2 -10
2 -2000
2 -18
4 1
4 1
4 1
4 1
4 2.667
4 1.667
4 2.667
4 3.333
4 2.667
4 2
4 3
4 3
4 2.667
4 2.667
4 2.667
4 2.667
4 2.667
4 2.333
4 2.333
4 2.333
C0
o1
o2
n0.1
o5
o0
v0
v1
n2
o5
o0
o1
o0
v2
v3
v0
v1
n2
C1
o1
o2
n0.1
o5
o0
v2
v3
n2
o5
o0
o1
o0
v4
v5
v2
v3
n2
C2
o1
o2
n0.1
o5
o0
v4
v5
n2
o5
o0
o1
o0
v6
v7
v4
v5
n2
C3
o1
o2
n0.1
o5
o0
v6
v7
n2
o5
o0
o1
o0
v8
v9
v6
v7
n2
C4
n0
C5
n0
C6
n0
C7
n0
C8
n0
C9
n0
C10
n0
C11
n0
C12
n0
C13
n0
C14
n0
C15
n0
C16
n0
C17
n0
C18
n0
C19
n0
C20
n0
C21
n0
C22
n0
C23
n0
C24
n0
C25
n0
C26
n0
C27
n0
C28
n0
O0 0
n0
k59
3
6
10
14
18
22
26
30
33
36
38
40
42
44
46
48
50
52
54
56
58
59
61
62
64
65
67
68
70
71
73
74
76
77
79
80
82
83
85
86
88
89
91
92
94
95
97
98
100
101
103
104
105
106
107
108
109
110
111
J0 4
0 0
1 0
2 0
3 0
J1 4
2 0
3 0
4 0
5 0
J2 4
4 0
5 0
6 0
7 0
J3 4
6 0
7 0
8 0
9 0
J4 4
0 -1
1 -1
10 -1
11 -1
J5 4
2 -1
3 -1
12 -1
13 -1
J6 4
4 -1
5 -1
14 -1
15 -1
J7 4
6 -1
7 -1
16 -1
17 -1
J8 4
8 -1
9 -1
18 -1
19 -1
J9 3
10 1
20 -1
21 1
J10 3
11 1
22 -1
23 1
J11 3
0 1
24 -1
25 1
J12 3
1 1
26 -1
27 1
J13 4
12 1
20 1
28 -1
29 1
J14 4
13 1
22 1
30 -1
31 1
J15 4
2 1
24 1
32 -1
33 1
J16 4
3 1
26 1
34 -1
35 1
J17 4
14 1
28 1
36 -1
37 1
J18 4
15 1
30 1
38 -1
39 1
J19 4
4 1
32 1
40 -1
41 1
J20 4
5 1
34 1
42 -1
43 1
J21 4
16 1
36 1
44 -1
45 1
J22 4
17 1
38 1
46 -1
47 1
J23 4
6 1
40 1
48 -1
49 1
J24 4
7 1
42 1
50 -1
51 1
J25 4
18 1
44 1
52 -1
53 1
J26 4
19 1
46 1
54 -1
55 1
J27 4
8 1
48 1
56 -1
57 1
J28 4
9 1
50 1
58 -1
59 1
G0 40
20 1
21 2
22 2
23 3
24 3
25 2
26 4
27 5
28 1
29 2
30 2
31 3
32 3
33 2
34 4
35 5
36 1
37 2
38 2
39 3
40 3
41 2
42 4
43 5
44 1
45 2
46 2
47 3
48 3
49 2
50 4
51 5
52 1
53 2
54 2
55 3
56 3
57 2
58 4
59 5
